n= 20; m= 6;

75	64	96	95	22	41	26	53	68	49	19	63	99	44	44	30	34	44	29	77
73	94	56	19	20	51	85	92	43	75	71	22	96	62	47	70	45	88	85	88
71	3	56	73	80	82	36	98	90	46	50	98	60	99	57	92	58	45	48	74
47	49	36	87	58	25	76	73	80	66	24	90	15	98	84	31	60	59	33	13
49	40	33	64	55	25	89	95	58	83	54	85	98	46	88	26	28	86	72	53
71	3	56	73	80	82	36	98	90	46	50	98	60	99	57	92	58	45	48	74
 


 

